150 9061564
53 56 38 35 11 71 26 142 20 147 106 149 52 14 9 85 84 143 51 39 101 76 145 122 118 18 110 15 140 17 141 109 62 96 98 130 37 128 131 65 99 150 127 68 75 120 73 48 58 64 116 123 124 42 81 89 103 91 34 45 134 57 82 86 107 78 93 1 66 67 135 79 24 8 83 137 102 126 72 133 119 144 59 104 31 49 105 121 80 114 132 36 112 90 139 19 13 55 60 97 21 129 108 5 136 10 100 138 22 88 69 40 54 125 7 46 50 117 16 25 92 95 30 33 61 94 148 77 115 27 4 111 28 43 2 23 29 6 47 41 113 146 87 12 74 32 44 63 3 70 
